12 24 6 10
15 15 16 15 11 15 18 16 17 13 8 12 10 18 14 4 12 6 6 14 1 10 18 6 
3.08 2.56 3.23 2.65 6.49 2.59 7.45 5.09 0.84 3.33 4.96 4.05 0.11 3.72 6.29 1.58 7.74 6.38 5.16 4.6 6.47 1.53 4.18 3.97 
6.66 5.58 7 1.18 6.39 7.84 6.07 2.37 0.97 3.02 0.88 5.4 6.9 0.5 3.82 4.81 3.35 2.28 0.63 1.27 4.08 5.51 3.56 6.01 
3.32 4.03 1.55 6.27 7.15 7.96 2.49 4.36 6.89 0.42 2.34 3.96 6.61 5.62 6.11 5.63 2.62 2.21 0.38 2.19 6.95 3.37 5.83 2.88 
1.81 4.3 3.94 7.77 5.97 7.45 2.2 0.11 1.48 7.64 5.37 4.4 1.01 7.4 2.63 3.43 5.37 4.32 4.32 3.37 6.61 2.52 2.72 4.77 
2.83 3.23 7.62 1.35 2.44 6.07 1.86 1.66 3.02 3.62 1.41 5.43 4.15 5.49 3.25 4.81 5.15 4.45 3.83 0.45 2.11 7.96 7.38 7.65 
6.19 3.17 7.45 1.73 5.04 4.88 0.75 5.37 6.78 6.35 4.31 4.8 4.31 0.28 1.84 1.53 0.14 7.04 1.01 6.49 0.58 0.23 6.84 2.3 
4 4 4 4 4 4 4 4 4 4 4 4 4 4 4 4 4 4 4 4 4 4 4 4 
0.74 4.15 0.44 7.08 5.79 2.53 1.07 3.93 2.41 7.33 0.49 1.22 6.58 7.22 7.4 0.1 1.48 0.31 0.42 3.63 1.43 6.58 3.72 7.51 
6.36 2.59 7.1 4.33 2.26 1.97 0.32 3.42 1.65 3.32 3.72 7.48 1.3 3.4 1.12 7.33 6.33 4.55 4.77 4.28 1.61 4.15 0.12 2.63 
5.34 3.96 4.52 6.96 5.77 1.46 0.28 7.53 5.19 7.61 1.53 5.81 5.62 4.96 2.56 2.22 1.58 0.97 6.24 5.41 5.88 2.39 3.27 3 
2.27 7.77 6.91 1.37 6.06 3.97 7.64 3.06 6.06 2.55 0.59 2.86 4.97 0.83 6.62 2.45 7.51 3.77 3.98 6.51 4.89 1.12 7.74 4.75 
7.52 3.66 5.87 7.7 0.27 4.86 5.92 7.79 4.86 2.01 2.82 6.8 5.02 6.9 0.22 0.33 5.95 6.28 2.8 6.52 5.15 5.06 2.44 6.88 
1 1 1 1 1 1 1 1 1 1 1 1 1 1 1 1 1 1 1 1 1 1 1 1 
1 1 1 1 1 1 1 1 1 1 1 1 1 1 1 1 1 1 1 1 1 1 1 1 
1 1 1 1 1 1 1 1 1 1 1 1 1 1 1 1 1 1 1 1 1 1 1 1 
1 1 1 1 1 1 1 1 1 1 1 1 1 1 1 1 1 1 1 1 1 1 1 1 
1 1 1 1 1 1 1 1 1 1 1 1 1 1 1 1 1 1 1 1 1 1 1 1 
1 1 1 1 1 1 1 1 1 1 1 1 1 1 1 1 1 1 1 1 1 1 1 1 
1 1 1 1 1 1 1 1 1 1 1 1 1 1 1 1 1 1 1 1 1 1 1 1 
1 1 1 1 1 1 1 1 1 1 1 1 1 1 1 1 1 1 1 1 1 1 1 1 
1 1 1 1 1 1 1 1 1 1 1 1 1 1 1 1 1 1 1 1 1 1 1 1 
1 1 1 1 1 1 1 1 1 1 1 1 1 1 1 1 1 1 1 1 1 1 1 1 
1 1 1 1 1 1 1 1 1 1 1 1 1 1 1 1 1 1 1 1 1 1 1 1 
1 1 1 1 1 1 1 1 1 1 1 1 1 1 1 1 1 1 1 1 1 1 1 1 
0.01 0.01 0.01 0.01 0.01 0.01 0.01 0.01 0.01 0.01 0.01 0.01 0.01 0.01 0.01 0.01 0.01 0.01 0.01 0.01 0.01 0.01 0.01 0.01 
0.02 0.02 0.02 0.02 0.02 0.02 0.02 0.02 0.02 0.02 0.02 0.02 0.02 0.02 0.02 0.02 0.02 0.02 0.02 0.02 0.02 0.02 0.02 0.02 
0.03 0.03 0.03 0.03 0.03 0.03 0.03 0.03 0.03 0.03 0.03 0.03 0.03 0.03 0.03 0.03 0.03 0.03 0.03 0.03 0.03 0.03 0.03 0.03 
0.04 0.04 0.04 0.04 0.04 0.04 0.04 0.04 0.04 0.04 0.04 0.04 0.04 0.04 0.04 0.04 0.04 0.04 0.04 0.04 0.04 0.04 0.04 0.04 
0.05 0.05 0.05 0.05 0.05 0.05 0.05 0.05 0.05 0.05 0.05 0.05 0.05 0.05 0.05 0.05 0.05 0.05 0.05 0.05 0.05 0.05 0.05 0.05 
0.06 0.06 0.06 0.06 0.06 0.06 0.06 0.06 0.06 0.06 0.06 0.06 0.06 0.06 0.06 0.06 0.06 0.06 0.06 0.06 0.06 0.06 0.06 0.06 
0.07 0.07 0.07 0.07 0.07 0.07 0.07 0.07 0.07 0.07 0.07 0.07 0.07 0.07 0.07 0.07 0.07 0.07 0.07 0.07 0.07 0.07 0.07 0.07 
0.2 0.2 0.2 0.2 0.2 0.2 0.2 0.2 0.2 0.2 0.2 0.2 0.2 0.2 0.2 0.2 0.2 0.2 0.2 0.2 0.2 0.2 0.2 0.2 
0.4 0.4 0.4 0.4 0.4 0.4 0.4 0.4 0.4 0.4 0.4 0.4 0.4 0.4 0.4 0.4 0.4 0.4 0.4 0.4 0.4 0.4 0.4 0.4 
0.6 0.6 0.6 0.6 0.6 0.6 0.6 0.6 0.6 0.6 0.6 0.6 0.6 0.6 0.6 0.6 0.6 0.6 0.6 0.6 0.6 0.6 0.6 0.6 
0.8 0.8 0.8 0.8 0.8 0.8 0.8 0.8 0.8 0.8 0.8 0.8 0.8 0.8 0.8 0.8 0.8 0.8 0.8 0.8 0.8 0.8 0.8 0.8 
1 1 1 1 1 1 1 1 1 1 1 1 1 1 1 1 1 1 1 1 1 1 1 1 
